(set-option :produce-models true)
(set-logic QF_UF)
(declare-fun p3() Bool)
(declare-fun p6() Bool)
(declare-fun p10() Bool)
(declare-fun p4() Bool)
(declare-fun p25() Bool)
(declare-fun p41() Bool)
(declare-fun p47() Bool)
(declare-fun p11() Bool)
(declare-fun p48() Bool)
(declare-fun p29() Bool)
(declare-fun p44() Bool)
(declare-fun p34() Bool)
(declare-fun p19() Bool)
(declare-fun p39() Bool)
(declare-fun p30() Bool)
(declare-fun p32() Bool)
(declare-fun p17() Bool)
(declare-fun p20() Bool)
(declare-fun p42() Bool)
(declare-fun p1() Bool)
(declare-fun p13() Bool)
(declare-fun p36() Bool)
(declare-fun p28() Bool)
(declare-fun p53() Bool)
(declare-fun p51() Bool)
(declare-fun p55() Bool)
(declare-fun p14() Bool)
(declare-fun p54() Bool)
(declare-fun p38() Bool)
(declare-fun p57() Bool)
(declare-fun p24() Bool)
(declare-fun p15() Bool)
(declare-fun p21() Bool)
(declare-fun p46() Bool)
(declare-fun p0() Bool)
(declare-fun p9() Bool)
(declare-fun p7() Bool)
(declare-fun p40() Bool)
(declare-fun p16() Bool)
(declare-fun p56() Bool)
(declare-fun p45() Bool)
(declare-fun p58() Bool)
(declare-fun p49() Bool)
(declare-fun p5() Bool)
(declare-fun p18() Bool)
(declare-fun p22() Bool)
(declare-fun p43() Bool)
(declare-fun p33() Bool)
(declare-fun p59() Bool)
(declare-fun p23() Bool)
(declare-fun p37() Bool)
(declare-fun p8() Bool)
(declare-fun p12() Bool)
(declare-fun p52() Bool)
(declare-fun p31() Bool)
(declare-fun p26() Bool)
(declare-fun p50() Bool)
(declare-fun p35() Bool)
(declare-fun p2() Bool)
(declare-fun p27() Bool)
(assert
(and (or p3 (not p6) p10) (or (not p4) p25 p41) (or p47 (not p11) (not p48)) (or (not p29) (not p44) p3) (or p34 p11 p19) (or (not p39) p30 p32) (or (not p17) p20 (not p30)) (or (not p42) p48 p20) (or (not p39) p1 p13) (or p36 p29 (not p19)) (or (not p28) (not p53) (not p51)) (or p3 p55 p14) (or p54 p38 p57) (or p24 p11 p15) (or p21 p21 (not p28)) (or p46 p38 (not p1)) (or (not p34) p44 (not p0)) (or (not p9) (not p38) p10) (or p42 (not p7) p40) (or (not p16) (not p14) p47) (or p56 p56 (not p14)) (or (not p25) (not p28) (not p16)) (or (not p4) (not p54) p34) (or (not p45) (not p58) p49) (or (not p25) (not p11) p14) (or p19 (not p40) (not p32)) (or (not p5) (not p45) p24) (or p28 (not p18) p25) (or (not p34) p7 (not p32)) (or (not p10) p55 p9) (or (not p29) (not p22) p40) (or (not p3) p54 p24) (or (not p10) p43 p1) (or (not p14) (not p11) (not p43)) (or p41 p46 p45) (or (not p33) p46 p32) (or (not p45) (not p11) (not p22)) (or p43 p9 (not p57)) (or p36 p33 p59) (or p46 (not p23) (not p40)) (or (not p0) p7 (not p37)) (or p1 p29 (not p9)) (or p8 p32 p36) (or p12 p4 p25) (or p17 (not p41) (not p17)) (or (not p15) (not p14) p23) (or p9 p29 p12) (or (not p51) p45 (not p43)) (or (not p36) (not p22) p37) (or (not p36) (not p5) p52) (or (not p9) p22 (not p31)) (or (not p19) p26 p46) (or (not p52) p14 p33) (or (not p55) p50 p35) (or p4 p38 p54) (or (not p3) (not p36) p54) (or p9 (not p0) (not p53)) (or p11 (not p59) p50) (or (not p35) p57 p52) (or p3 (not p47) (not p36)) (or (not p0) (not p38) (not p34)) (or (not p6) (not p25) p22) (or (not p17) p22 p44) (or (not p14) p44 (not p45)) (or (not p10) p2 (not p30)) (or (not p52) p49 p33) (or p4 p16 p37) (or p54 p13 p15) (or (not p40) (not p6) p12) (or (not p26) p13 (not p33)) (or (not p58) (not p18) (not p46)) (or p5 p32 p16) (or p27 (not p58) (not p26)) (or p5 (not p18) p2) (or p28 p20 (not p7)) (or (not p36) (not p26) (not p17)) (or p20 p20 (not p12)) (or (not p8) (not p35) (not p2)) (or (not p56) p32 (not p48)) (or (not p0) (not p1) (not p3)) (or p16 (not p12) p34) (or (not p36) p4 p17) (or p56 p17 (not p5)) (or (not p32) (not p32) p59) (or (not p31) p58 (not p41)) (or p14 p13 p32) (or (not p34) (not p43) p54) (or (not p18) (not p22) p40) (or p3 p37 (not p19)) (or (not p24) p58 (not p1)) (or p4 p23 (not p10)) (or p35 p3 (not p34)) (or p27 (not p15) (not p57)) (or p43 (not p39) p29) (or p5 (not p39) (not p39)) (or p51 (not p15) p0) (or (not p1) (not p3) p42) (or p22 (not p13) (not p55)) (or p22 p19 (not p42)) (or p31 p15 p26) (or (not p49) p30 (not p58)) (or (not p23) (not p16) (not p17)) (or p55 (not p55) p10) (or (not p20) p34 (not p29)) (or p17 p54 (not p25)) (or (not p58) (not p13) p55) (or p36 p56 (not p50)) (or (not p31) p24 (not p59)) (or (not p15) (not p29) (not p22)) (or p27 p5 p3) (or p9 p45 p32) (or p35 p16 p27) (or (not p10) (not p39) (not p48)) (or p14 (not p8) p27) (or p39 p47 (not p40)) (or (not p24) p23 (not p55)) (or (not p5) p4 (not p28)) (or p30 (not p20) (not p38)) (or (not p46) p6 p58) (or (not p32) (not p51) (not p45)) (or (not p21) (not p12) (not p21)) (or p22 (not p33) p26) (or (not p43) (not p17) p29) (or (not p24) p22 p21) (or p25 (not p24) p37) (or (not p43) (not p16) p24) (or (not p5) (not p51) p37) (or (not p20) (not p41) p48) (or p48 p14 p49) (or p43 (not p32) p17) (or (not p17) p28 p19) (or p56 (not p53) p38) (or (not p16) (not p53) (not p4)) (or (not p12) p38 (not p4)) (or p43 (not p18) p48) (or (not p58) (not p8) (not p57)) (or p6 p52 (not p25)) (or p7 p11 p50) (or p53 (not p30) (not p56)) (or (not p42) (not p38) (not p22)) (or (not p39) (not p13) (not p51)) (or p40 (not p40) p46) (or (not p59) (not p0) (not p46)) (or p9 (not p3) p14) (or p18 p29 (not p18)) (or p33 (not p17) p16) (or (not p41) p6 p5) (or (not p6) p37 (not p2)) (or (not p15) (not p15) p32) (or p38 p23 (not p37)) (or (not p42) p26 (not p1)) (or p27 (not p2) (not p24)) (or (not p12) (not p19) (not p58)) (or (not p56) (not p3) (not p23)) (or (not p17) (not p37) p5) (or (not p35) (not p15) (not p50)) (or (not p42) (not p25) (not p58)) (or (not p40) p33 p11) (or p49 p57 p41) (or (not p58) p17 p29) (or (not p19) (not p43) p2) (or (not p40) (not p26) p59) (or (not p41) p11 (not p8)) (or p1 (not p6) (not p27)) (or p12 (not p7) p2) (or p12 p22 (not p39)) (or p39 (not p21) p16) (or (not p21) (not p32) p46) (or (not p54) (not p59) p50) (or (not p46) p45 (not p17)) (or p27 p52 p29) (or p40 (not p37) p20) (or p15 (not p43) (not p23)) (or p39 p29 (not p53)) (or (not p36) (not p2) (not p56)) (or (not p53) p42 p44) (or (not p23) (not p16) p5) (or (not p22) (not p31) p15) (or (not p3) p40 p17) (or (not p6) p10 p48) (or p24 p36 p23) (or (not p12) p38 p30) (or p59 p15 p4) (or p28 p49 p42) (or p56 p17 p50) (or (not p55) (not p5) (not p38)) (or (not p14) p29 p42) (or p27 (not p43) (not p1)) (or p21 p47 p20) (or p24 p33 p43) (or p14 p42 p8) (or (not p0) p39 p47) (or (not p43) (not p10) p9) (or p40 (not p19) (not p46)) (or (not p19) (not p36) p17) (or p55 (not p51) p29) (or (not p9) (not p26) (not p24)) (or p23 (not p11) (not p18)) (or (not p29) (not p12) (not p33)) (or (not p35) p17 (not p27)) (or p33 p14 (not p13)) (or (not p27) p58 p6) (or (not p14) (not p48) (not p25)) (or (not p17) (not p1) (not p55)) (or (not p40) (not p44) p9) (or (not p47) (not p15) (not p21)) (or p52 p42 (not p26)) (or p5 p22 p26) (or (not p27) (not p15) (not p4)) (or p17 (not p53) (not p43)) (or (not p28) p59 (not p27)) (or p24 (not p0) (not p40)) (or p37 p22 (not p23)) (or p15 (not p58) (not p57)) (or p10 (not p26) p15) (or p2 (not p39) (not p10)) (or p24 p49 p14) (or (not p30) p59 p58) (or p17 p27 (not p32)) (or p53 p22 (not p1)) (or p26 (not p30) (not p58)) (or (not p32) (not p40) p19) (or p39 p48 p29) (or p12 (not p3) (not p47)) (or p21 p56 p42) (or (not p32) (not p42) p36) (or p59 (not p3) (not p55)) (or (not p25) p15 p43) (or p16 p8 (not p34)) (or (not p41) (not p12) (not p16)) (or (not p47) (not p46) p16) (or (not p5) p54 p49) (or p51 p11 p49) (or p15 (not p45) p11) (or p29 (not p52) p44) (or (not p25) (not p37) (not p45)) (or p21 p4 p23) (or (not p23) p18 p36) (or p17 (not p9) (not p1)) (or (not p43) p29 (not p15)) (or (not p8) (not p6) p59) (or (not p13) (not p53) (not p58)) (or p54 (not p17) p27) (or p29 p32 p16) (or (not p33) (not p55) p37) (or p11 p5 (not p17)) (or p2 (not p30) (not p49)) (or p3 p3 (not p16)) (or (not p50) p37 p41) (or p42 (not p17) (not p2)) (or (not p31) p8 p43) (or (not p15) (not p42) (not p56)))
)
(check-sat)
(get-model)
